(declare-fun ExpandObjSwitcher () Real)
(declare-fun Constructed_Argument_t () String)
(declare-fun Constructed_Argument_2_t () String)
(declare-fun CreateAsClass () Bool)
(declare-fun Constructed_Argument_elements_0_0_t () String)
(declare-fun Constructed_Argument_elements_0_0_elements_length_0_t () String)
(declare-fun Constructed_Argument_elements_0_0_elements_length_0 () Real)
(declare-fun Constructed_Argument_elements_0_0_elements_apply_1_t () String)
(declare-fun Constructed_Argument_elements_length_1_t () String)
(assert (= ExpandObjSwitcher 4.0))
(assert (= Constructed_Argument_t "object"))
(assert (not (= Constructed_Argument_2_t "string")))
(assert (not (= Constructed_Argument_2_t "number")))
(assert (not (= Constructed_Argument_2_t "boolean")))
(assert (not (= Constructed_Argument_2_t "object")))
(assert (not (= Constructed_Argument_2_t "array_number")))
(assert (not (= Constructed_Argument_2_t "array_string")))
(assert (not (= Constructed_Argument_2_t "array_bool")))
(assert (not (= Constructed_Argument_2_t "null")))
(assert (not CreateAsClass))
(assert (= Constructed_Argument_elements_0_0_t "object"))
(assert (= Constructed_Argument_elements_0_0_elements_length_0_t "number"))
(assert (= Constructed_Argument_elements_0_0_elements_length_0 1.0))
(assert (= Constructed_Argument_elements_0_0_elements_apply_1_t "null"))
(assert (= Constructed_Argument_elements_length_1_t "string"))
(check-sat)
